ampl/minesweeper_config_page3.dat
# From "Some Minesweeper Configurations", page 3
# 4 solutions
param r := 8;
param c := 8;
param game: 1 2 3 4 5 6 7 8:=
  1  2 3 . 2 2 . 2 1 
  2  . . 4 . . 4 . 2 
  3  . . . . . . 4 . 
  4  . 5 . 6 . . . 2 
  5  2 . . . 5 5 . 2 
  6  1 3 4 . . . 4 . 
  7  0 1 . 4 . . . 3 
  8  0 1 2 . 2 3 . 2 
;
