essence_tailor/minesweeper_config_page3.param
ESSENCE' 1.0
$ From "Some Minesweeper Configurations",page 3
$ 4 solutions
param r be 8
param c be 8
param game be [
   [2,3,-1,2,2,-1,2,1],
   [-1,-1,4,-1,-1,4,-1,2],
   [-1,-1,-1,-1,-1,-1,4,-1],
   [-1,5,-1,6,-1,-1,-1,2],
   [2,-1,-1,-1,5,5,-1,2],
   [1,3,4,-1,-1,-1,4,-1],
   [0,1,-1,4,-1,-1,-1,3],
   [0,1,2,-1,2,3,-1,2] 
  ]

